NAME : LPS-n24-m209
COMMENT : (Lartu-Peter-Santi Plot, instance 8609 out of 39200. 24 customers.)
TYPE : CVRP
DIMENSION : 24
EDGE_WEIGHT_TYPE : EUC_2D
CAPACITY : 79
NODE_COORD_SECTION
 1 90 60
 2 50 82
 3 60 90
 4 51 16
 5 68 91
 6 95 90
 7 16 8
 8 62 6
 9 33 8
 10 44 85
 11 3 57
 12 97 98
 13 35 5
 14 69 77
 15 78 99
 16 0 70
 17 10 46
 18 66 66
 19 83 56
 20 82 65
 21 44 46
 22 60 97
 23 0 67
 24 42 82
DEMAND_SECTION
1 0
2 54
3 71
4 32
5 5
6 42
7 62
8 12
9 67
10 8
11 23
12 43
13 7
14 4
15 9
16 35
17 48
18 11
19 44
20 11
21 25
22 10
23 15
24 59
DEPOT_SECTION
 1
 -1
EOF
